Program PWSCF v.6.8 starts on 12Mar2026 at 11:35:47

     This program is part of the open-source Quantum ESPRESSO suite
     for quantum simulation of materials; please cite
         "P. Giannozzi et al., J. Phys.:Condens. Matter 21 395502 (2009);
         "P. Giannozzi et al., J. Phys.:Condens. Matter 29 465901 (2017);
         "P. Giannozzi et al., J. Chem. Phys. 152 154105 (2020);
          URL http://www.quantum-espresso.org",
     in publications or presentations arising from this work. More details at
     http://www.quantum-espresso.org/quote

     Parallel version (MPI & OpenMP), running on      16 processor cores
     Number of MPI processes:                16
     Threads/MPI process:                     1

     MPI processes distributed on     1 nodes
     R & G space division:  proc/nbgrp/npool/nimage =      16
     164122 MiB available memory on the printing compute node when the environment starts

     Reading input from diamond.relax.in

     Current dimensions of program PWSCF are:
     Max number of different atomic species (ntypx) = 10
     Max number of k-points (npk) =  40000
     Max angular momentum in pseudopotentials (lmaxx) =  4

     Subspace diagonalization in iterative solution of the eigenvalue problem:
     a serial algorithm will be used


     Parallelization info
     --------------------
     sticks:   dense  smooth     PW     G-vecs:    dense   smooth      PW
     Min          31      31      9                  461      461      76
     Max          32      32     10                  465      465      79
     Sum         499     499    151                 7391     7391    1243

     Using Slab Decomposition
       bravais-lattice index     =            2
     lattice parameter (alat)  =       6.7403  a.u.
     unit-cell volume          =      76.5557 (a.u.)^3
     number of atoms/cell      =            2
     number of atomic types    =            1
     number of electrons       =         8.00
     number of Kohn-Sham states=            8
     kinetic-energy cutoff     =      80.0000  Ry
     charge density cutoff     =     320.0000  Ry
     scf convergence threshold =      1.0E-09
     mixing beta               =       0.7000
     number of iterations used =            8  plain     mixing
     energy convergence thresh.=      1.0E-04
     force convergence thresh. =      1.0E-04
     press convergence thresh. =      5.0E-01
     Exchange-correlation= SLA  PW   NOGX NOGC
                           (   1   4   0   0   0   0   0)
     nstep                     =           50


     celldm(1)=   6.740300  celldm(2)=   0.000000  celldm(3)=   0.000000
     celldm(4)=   0.000000  celldm(5)=   0.000000  celldm(6)=   0.000000

     crystal axes: (cart. coord. in units of alat)
               a(1) = (  -0.500000   0.000000   0.500000 )
               a(2) = (   0.000000   0.500000   0.500000 )
               a(3) = (  -0.500000   0.500000   0.000000 )

     reciprocal axes: (cart. coord. in units 2 pi/alat)
               b(1) = ( -1.000000 -1.000000  1.000000 )
               b(2) = (  1.000000  1.000000  1.000000 )
               b(3) = ( -1.000000  1.000000 -1.000000 )


     PseudoPot. # 1 for C  read from file:
     ../../pseudo/C.upf
     MD5 check sum: c9bd9c91d9c48f3c1b9c51e450525728
     Pseudo is Norm-conserving + core correction, Zval =  4.0
     Generated using ONCVPSP code by D. R. Hamann
     Using radial grid of 1234 points,  4 beta functions with:
l(1) =   0
                l(2) =   0
                l(3) =   1
                l(4) =   1

     atomic species   valence    mass     pseudopotential
        C              4.00    12.01070     C ( 1.00)

     48 Sym. Ops., with inversion, found (24 have fractional translation)



   Cartesian axes

     site n.     atom                  positions (alat units)
         1           C   tau(   1) = (   0.0000000   0.0000000   0.0000000  )
         2           C   tau(   2) = (  -0.2500000   0.2500000   0.2500000  )

     number of k points=     8  Gaussian smearing, width (Ry)=  0.0100
                       cart. coord. in units 2pi/alat
        k(    1) = (   0.0000000   0.0000000   0.0000000), wk =   0.0312500
        k(    2) = (  -0.2500000   0.2500000  -0.2500000), wk =   0.2500000
        k(    3) = (   0.5000000  -0.5000000   0.5000000), wk =   0.1250000
        k(    4) = (   0.0000000   0.5000000   0.0000000), wk =   0.1875000
        k(    5) = (   0.7500000  -0.2500000   0.7500000), wk =   0.7500000
        k(    6) = (   0.5000000   0.0000000   0.5000000), wk =   0.3750000
        k(    7) = (   0.0000000  -1.0000000   0.0000000), wk =   0.0937500
        k(    8) = (  -0.5000000  -1.0000000   0.0000000), wk =   0.1875000

     Dense  grid:     7391 G-vectors     FFT dimensions: (  32,  32,  32)

     Estimated max dynamical RAM per process >       1.27 MB

     Estimated total dynamical RAM >      20.34 MB

     Initial potential from superposition of free atoms

     starting charge    7.99992, renormalised to    8.00000
     Starting wfcs are    8 randomized atomic wfcs

     total cpu time spent up to now is        0.6 secs

     Self-consistent Calculation
       iteration #  1     ecut=    80.00 Ry     beta= 0.70
     Davidson diagonalization with overlap
     ethr =  1.00E-02,  avg # of iterations =  3.1

     total cpu time spent up to now is        0.7 secs

     total energy              =     -24.10962598 Ry
     estimated scf accuracy    <       0.12295524 Ry

     iteration #  2     ecut=    80.00 Ry     beta= 0.70
     Davidson diagonalization with overlap
     ethr =  1.54E-03,  avg # of iterations =  1.4

     total cpu time spent up to now is        0.7 secs

     total energy              =     -24.11843028 Ry
     estimated scf accuracy    <       0.00225412 Ry

     iteration #  3     ecut=    80.00 Ry     beta= 0.70
     Davidson diagonalization with overlap
     ethr =  2.82E-05,  avg # of iterations =  3.4

     total cpu time spent up to now is        0.7 secs

     total energy              =     -24.11891450 Ry
     estimated scf accuracy    <       0.00009016 Ry

     iteration #  4     ecut=    80.00 Ry     beta= 0.70
     Davidson diagonalization with overlap
     ethr =  1.13E-06,  avg # of iterations =  2.1

     total cpu time spent up to now is        0.7 secs

     total energy              =     -24.11891836 Ry
     estimated scf accuracy    <       0.00000897 Ry

     iteration #  5     ecut=    80.00 Ry     beta= 0.70
     Davidson diagonalization with overlap
     ethr =  1.12E-07,  avg # of iterations =  2.0

     total cpu time spent up to now is        0.7 secs
       total energy              =     -24.11891950 Ry
     estimated scf accuracy    <          4.0E-09 Ry

     iteration #  6     ecut=    80.00 Ry     beta= 0.70
     Davidson diagonalization with overlap
     ethr =  4.96E-11,  avg # of iterations =  3.8

     total cpu time spent up to now is        0.8 secs

     End of self-consistent calculation

          k = 0.0000 0.0000 0.0000 (   941 PWs)   bands (ev):

    -8.2036  13.1590  13.1590  13.1590  18.7095  18.7095  18.7095  26.6731

          k =-0.2500 0.2500-0.2500 (   923 PWs)   bands (ev):

    -6.4887   6.6003  11.4069  11.4069  20.9006  20.9006  21.3699  27.7142

          k = 0.5000-0.5000 0.5000 (   912 PWs)   bands (ev):

    -2.3555  -0.2434  10.3499  10.3499  21.5730  21.5730  22.1891  28.5439

          k = 0.0000 0.5000 0.0000 (   902 PWs)   bands (ev):

    -5.9204   8.7422   9.0194   9.0194  17.5880  23.3726  24.6603  24.6603

          k = 0.7500-0.2500 0.7500 (   920 PWs)   bands (ev):

    -2.1645   2.4281   6.4330   8.2624  19.2083  24.5101  25.8740  26.4570

          k = 0.5000 0.0000 0.5000 (   919 PWs)   bands (ev):
-3.7297   4.5421   5.5291  10.1363  21.0631  23.1007  25.4564  27.0258

          k = 0.0000-1.0000 0.0000 (   934 PWs)   bands (ev):

     0.5138   0.5138   6.8335   6.8335  17.8965  17.8965  29.7706  29.7706

          k =-0.5000-1.0000 0.0000 (   932 PWs)   bands (ev):

     1.3490   1.3490   4.7657   4.7657  23.6373  23.6373  25.4990  25.4990

     the Fermi energy is    15.8704 ev

!    total energy              =     -24.11891952 Ry
     estimated scf accuracy    <          5.4E-10 Ry
     smearing contrib. (-TS)   =      -0.00000000 Ry
     internal energy E=F+TS    =     -24.11891952 Ry

     The total energy is F=E-TS. E is the sum of the following terms:
     one-electron contribution =       8.19704920 Ry
     hartree contribution      =       1.92867739 Ry
     xc contribution           =      -8.67048215 Ry
     ewald contribution        =     -25.57416397 Ry

     convergence has been achieved in   6 iterations

     Forces acting on atoms (cartesian axes, Ry/au):

     atom    1 type  1   force =     0.00000000    0.00000000    0.00000000
     atom    2 type  1   force =     0.00000000    0.00000000    0.00000000

     Total force =     0.000000     Total SCF correction =     0.000000


     Computing stress (Cartesian axis) and pressure
       total   stress  (Ry/bohr**3)                   (kbar)     P=     -103.56
  -0.00070400  -0.00000000   0.00000000         -103.56       -0.00        0.00
  -0.00000000  -0.00070400  -0.00000000           -0.00     -103.56       -0.00
   0.00000000  -0.00000000  -0.00070400            0.00       -0.00     -103.56


     BFGS Geometry Optimization
     Energy error            =      0.0E+00 Ry
     Gradient error          =      0.0E+00 Ry/Bohr
     Cell gradient error     =      1.0E+02 kbar

     number of scf cycles    =   1
     number of bfgs steps    =   0

     enthalpy           new  =     -24.1189195225 Ry

     new trust radius        =       0.0307986997 bohr
     new conv_thr            =       0.0000000010 Ry

     new unit-cell volume =     72.58430 a.u.^3 (    10.75588 Ang^3 )
     density =      3.70853 g/cm^3

CELL_PARAMETERS (alat=  6.74030000)
  -0.491199982  -0.000000000   0.491199982
   0.000000000   0.491199982   0.491199982
  -0.491199982   0.491199982  -0.000000000

ATOMIC_POSITIONS (crystal)
C             0.0000000000        0.0000000000        0.0000000000
C             0.2500000000        0.2500000000        0.2500000000



     Writing output data file ./diamond.save/
     NEW-OLD atomic charge density approx. for the potential
     extrapolated charge    7.56229, renormalised to    8.00000

     total cpu time spent up to now is       11.9 secs

     Self-consistent Calculation
iteration #  1     ecut=    80.00 Ry     beta= 0.70
     Davidson diagonalization with overlap
     ethr =  1.00E-06,  avg # of iterations =  4.2

     total cpu time spent up to now is       11.9 secs

     total energy              =     -24.11524592 Ry
     estimated scf accuracy    <       0.00154109 Ry

     iteration #  2     ecut=    80.00 Ry     beta= 0.70
     Davidson diagonalization with overlap
     ethr =  1.93E-05,  avg # of iterations =  3.0

     total cpu time spent up to now is       11.9 secs

     total energy              =     -24.11853907 Ry
     estimated scf accuracy    <       0.00096333 Ry

     iteration #  3     ecut=    80.00 Ry     beta= 0.70
     Davidson diagonalization with overlap
     ethr =  1.20E-05,  avg # of iterations =  1.0

     total cpu time spent up to now is       11.9 secs

     total energy              =     -24.11839956 Ry
     estimated scf accuracy    <       0.00025488 Ry

     iteration #  4     ecut=    80.00 Ry     beta= 0.70
     Davidson diagonalization with overlap
     ethr =  3.19E-06,  avg # of iterations =  2.0

     total cpu time spent up to now is       11.9 secs

     total energy              =     -24.11844105 Ry
     estimated scf accuracy    <       0.00000310 Ry

     iteration #  5     ecut=    80.00 Ry     beta= 0.70
     Davidson diagonalization with overlap
     ethr =  3.88E-08,  avg # of iterations =  1.9
       total cpu time spent up to now is       12.0 secs

     total energy              =     -24.11844023 Ry
     estimated scf accuracy    <       0.00000246 Ry

     iteration #  6     ecut=    80.00 Ry     beta= 0.70
     Davidson diagonalization with overlap
     ethr =  3.08E-08,  avg # of iterations =  1.0

     total cpu time spent up to now is       12.0 secs

     total energy              =     -24.11844009 Ry
     estimated scf accuracy    <       0.00000037 Ry

     iteration #  7     ecut=    80.00 Ry     beta= 0.70
     Davidson diagonalization with overlap
     ethr =  4.58E-09,  avg # of iterations =  2.0

     total cpu time spent up to now is       12.0 secs

     total energy              =     -24.11844017 Ry
     estimated scf accuracy    <       0.00000004 Ry

     iteration #  8     ecut=    80.00 Ry     beta= 0.70
     Davidson diagonalization with overlap
     ethr =  4.64E-10,  avg # of iterations =  1.1

     total cpu time spent up to now is       12.0 secs

     End of self-consistent calculation

          k = 0.0000 0.0000 0.0000 (   941 PWs)   bands (ev):

    -7.9490  14.1413  14.1413  14.1413  19.8432  19.8432  19.8432  28.8857

          k =-0.2545 0.2545-0.2545 (   923 PWs)   bands (ev):

    -6.1705   7.3239  12.2948  12.2948  22.1401  22.1401  22.8533  29.5589
        k = 0.5090-0.5090 0.5090 (   912 PWs)   bands (ev):

    -1.7870   0.1323  11.1905  11.1905  22.7875  22.7875  23.9182  30.0056

          k = 0.0000 0.5090 0.0000 (   902 PWs)   bands (ev):

    -5.5817   9.6575   9.7741   9.7741  18.7163  24.7028  26.1352  26.1352

          k = 0.7634-0.2545 0.7634 (   920 PWs)   bands (ev):

    -1.6616   3.0136   7.1343   8.9853  20.3626  25.8891  27.3769  28.1935

          k = 0.5090 0.0000 0.5090 (   919 PWs)   bands (ev):

    -3.3001   5.2492   6.1412  10.9601  22.3147  24.4602  27.0172  28.8215

          k = 0.0000-1.0179 0.0000 (   934 PWs)   bands (ev):

     1.1077   1.1077   7.4852   7.4852  19.0047  19.0047  31.5708  31.5708

          k =-0.5090-1.0179 0.0000 (   932 PWs)   bands (ev):

     2.0356   2.0356   5.2771   5.2771  24.8696  24.8696  27.1903  27.1903

     the Fermi energy is    17.0910 ev

!    total energy              =     -24.11844017 Ry
     estimated scf accuracy    <          5.3E-11 Ry
     smearing contrib. (-TS)   =      -0.00000000 Ry
     internal energy E=F+TS    =     -24.11844017 Ry

     The total energy is F=E-TS. E is the sum of the following terms:
     one-electron contribution =       8.80397935 Ry
     hartree contribution      =       1.87601645 Ry
       xc contribution           =      -8.76610200 Ry
     ewald contribution        =     -26.03233397 Ry

     convergence has been achieved in   8 iterations

     Forces acting on atoms (cartesian axes, Ry/au):

     atom    1 type  1   force =    -0.00000000   -0.00000000   -0.00000000
     atom    2 type  1   force =     0.00000000    0.00000000    0.00000000

     Total force =     0.000000     Total SCF correction =     0.000000


     Computing stress (Cartesian axis) and pressure

          total   stress  (Ry/bohr**3)                   (kbar)     P=      149.21
   0.00101431  -0.00000000   0.00000000          149.21       -0.00        0.00
  -0.00000000   0.00101431   0.00000000           -0.00      149.21        0.00
  -0.00000000   0.00000000   0.00101431           -0.00        0.00      149.21

     Energy error            =      4.8E-04 Ry
     Gradient error          =      6.7E-32 Ry/Bohr
     Cell gradient error     =      1.5E+02 kbar

     number of scf cycles    =   2
     number of bfgs steps    =   1

     enthalpy           old  =     -24.1189195225 Ry
     enthalpy           new  =     -24.1184401690 Ry

     CASE: enthalpy          _new > enthalpy          _old

     new trust radius        =       0.0130628094 bohr
     new conv_thr            =       0.0000000010 Ry

     new unit-cell volume =     74.83902 a.u.^3 (    11.09000 Ang^3 )
     density =      3.59680 g/cm^3
CELL_PARAMETERS (alat=  6.74030000)
  -0.496234318  -0.000000000   0.496234318
   0.000000000   0.496234318   0.496234318
  -0.496234318   0.496234318  -0.000000000

ATOMIC_POSITIONS (crystal)
C             0.0000000000        0.0000000000        0.0000000000
C             0.2500000000        0.2500000000        0.2500000000



     Writing output data file ./diamond.save/
     NEW-OLD atomic charge density approx. for the potential
     extrapolated charge    8.24102, renormalised to    8.00000

     total cpu time spent up to now is       14.2 secs

     Self-consistent Calculation

     iteration #  1     ecut=    80.00 Ry     beta= 0.70
     Davidson diagonalization with overlap
     ethr =  1.00E-06,  avg # of iterations =  3.4

     total cpu time spent up to now is       14.2 secs

     total energy              =     -24.11857933 Ry
     estimated scf accuracy    <       0.00038853 Ry

     iteration #  2     ecut=    80.00 Ry     beta= 0.70
     Davidson diagonalization with overlap
     ethr =  4.86E-06,  avg # of iterations =  3.2

     total cpu time spent up to now is       14.3 secs

     total energy              =     -24.11958033 Ry
     estimated scf accuracy    <       0.00032942 Ry

     iteration #  3     ecut=    80.00 Ry     beta= 0.70
     Davidson diagonalization with overlap
     ethr =  4.12E-06,  avg # of iterations =  1.0
total cpu time spent up to now is       14.3 secs

     total energy              =     -24.11952841 Ry
     estimated scf accuracy    <       0.00009399 Ry

     iteration #  4     ecut=    80.00 Ry     beta= 0.70
     Davidson diagonalization with overlap
     ethr =  1.17E-06,  avg # of iterations =  2.0

     total cpu time spent up to now is       14.3 secs

     total energy              =     -24.11954453 Ry
     estimated scf accuracy    <       0.00000139 Ry

     iteration #  5     ecut=    80.00 Ry     beta= 0.70
     Davidson diagonalization with overlap
     ethr =  1.73E-08,  avg # of iterations =  1.2

     total cpu time spent up to now is       14.3 secs

     total energy              =     -24.11954420 Ry
     estimated scf accuracy    <       0.00000109 Ry

     iteration #  6     ecut=    80.00 Ry     beta= 0.70
     Davidson diagonalization with overlap
     ethr =  1.36E-08,  avg # of iterations =  1.0

     total cpu time spent up to now is       14.3 secs

     total energy              =     -24.11954397 Ry
     estimated scf accuracy    <       0.00000038 Ry

     iteration #  7     ecut=    80.00 Ry     beta= 0.70
     Davidson diagonalization with overlap
     ethr =  4.73E-09,  avg # of iterations =  2.0

     total cpu time spent up to now is       14.3 secs

     total energy              =     -24.11954404 Ry
     estimated scf accuracy    <          4.8E-09 Ry

     iteration #  8     ecut=    80.00 Ry     beta= 0.70
       Davidson diagonalization with overlap
     ethr =  6.06E-11,  avg # of iterations =  1.2

     total cpu time spent up to now is       14.4 secs

     total energy              =     -24.11954404 Ry
     estimated scf accuracy    <          1.1E-09 Ry

     iteration #  9     ecut=    80.00 Ry     beta= 0.70
     Davidson diagonalization with overlap
     ethr =  1.35E-11,  avg # of iterations =  1.6

     total cpu time spent up to now is       14.4 secs

     End of self-consistent calculation

          k = 0.0000 0.0000 0.0000 (   941 PWs)   bands (ev):

    -8.0970  13.5721  13.5721  13.5721  19.1869  19.1869  19.1869  27.6050

          k =-0.2519 0.2519-0.2519 (   923 PWs)   bands (ev):

    -6.3551   6.9048  11.7803  11.7803  21.4226  21.4226  21.9955  28.4940

          k = 0.5038-0.5038 0.5038 (   912 PWs)   bands (ev):

    -2.1170  -0.0850  10.7033  10.7033  22.0850  22.0850  22.9170  29.1625

          k = 0.0000 0.5038 0.0000 (   902 PWs)   bands (ev):

    -5.7782   9.1275   9.3368   9.3368  18.0627  23.9380  25.2811  25.2811

          k = 0.7557-0.2519 0.7557 (   920 PWs)   bands (ev):

    -1.9527   2.6747   6.7274   8.5664  19.6952  25.0945  26.5071  27.1843

          k = 0.5038 0.0000 0.5038 (   919 PWs)   bands (ev):
       -3.5489   4.8400   5.7860  10.4828  21.5923  23.6733  26.1138  27.7806

          k = 0.0000-1.0076 0.0000 (   934 PWs)   bands (ev):

     0.7639   0.7639   7.1076   7.1076  18.3633  18.3633  30.5280  30.5280

          k =-0.5038-1.0076-0.0000 (   932 PWs)   bands (ev):

     1.6376   1.6376   4.9810   4.9810  24.1569  24.1569  26.2108  26.2108

     the Fermi energy is    16.3838 ev

!    total energy              =     -24.11954404 Ry
     estimated scf accuracy    <          4.8E-12 Ry
     smearing contrib. (-TS)   =      -0.00000000 Ry
     internal energy E=F+TS    =     -24.11954404 Ry

     The total energy is F=E-TS. E is the sum of the following terms:
     one-electron contribution =       8.45346343 Ry
     hartree contribution      =       1.90608878 Ry
     xc contribution           =      -8.71086235 Ry
     ewald contribution        =     -25.76823389 Ry

     convergence has been achieved in   9 iterations

     Forces acting on atoms (cartesian axes, Ry/au):

     atom    1 type  1   force =     0.00000000    0.00000000   -0.00000000
     atom    2 type  1   force =    -0.00000000   -0.00000000    0.00000000
       Total force =     0.000000     Total SCF correction =     0.000000


     Computing stress (Cartesian axis) and pressure

          total   stress  (Ry/bohr**3)                   (kbar)     P=       -1.72
  -0.00001172  -0.00000000   0.00000000           -1.72       -0.00        0.00
  -0.00000000  -0.00001172  -0.00000000           -0.00       -1.72       -0.00
   0.00000000  -0.00000000  -0.00001172            0.00       -0.00       -1.72

     Energy error            =      6.2E-04 Ry
     Gradient error          =      5.0E-32 Ry/Bohr
     Cell gradient error     =      1.7E+00 kbar

     number of scf cycles    =   3
     number of bfgs steps    =   1

     enthalpy           old  =     -24.1189195225 Ry
     enthalpy           new  =     -24.1195440353 Ry

     CASE: enthalpy          _new < enthalpy          _old

     new trust radius        =       0.0002188701 bohr
     new conv_thr            =            1.0E-11 Ry

     new unit-cell volume =     74.81062 a.u.^3 (    11.08579 Ang^3 )
     density =      3.59816 g/cm^3

CELL_PARAMETERS (alat=  6.74030000)
  -0.496171545  -0.000000000   0.496171545
   0.000000000   0.496171545   0.496171545
  -0.496171545   0.496171545  -0.000000000

ATOMIC_POSITIONS (crystal)
C            -0.0000000000       -0.0000000000        0.0000000000
C             0.2500000000        0.2500000000        0.2500000000



     Writing output data file ./diamond.save/
     NEW-OLD atomic charge density approx. for the potential
     extrapolated charge    7.99696, renormalised to    8.00000

     total cpu time spent up to now is       14.4 secs

     Self-consistent Calculation

     iteration #  1     ecut=    80.00 Ry     beta= 0.70
     Davidson diagonalization with overlap
     ethr =  1.00E-06,  avg # of iterations =  1.0

     Threshold (ethr) on eigenvalues was too large:
     Diagonalizing with lowered threshold

     Davidson diagonalization with overlap
     ethr =  9.28E-10,  avg # of iterations =  2.0
        total cpu time spent up to now is       14.5 secs

     total energy              =     -24.11954404 Ry
     estimated scf accuracy    <       0.00000007 Ry

     iteration #  2     ecut=    80.00 Ry     beta= 0.70
     Davidson diagonalization with overlap
     ethr =  8.35E-10,  avg # of iterations =  2.9

     total cpu time spent up to now is       14.5 secs

     total energy              =     -24.11954420 Ry
     estimated scf accuracy    <       0.00000005 Ry

     iteration #  3     ecut=    80.00 Ry     beta= 0.70
     Davidson diagonalization with overlap
     ethr =  6.26E-10,  avg # of iterations =  1.0

     total cpu time spent up to now is       14.5 secs

     total energy              =     -24.11954420 Ry
     estimated scf accuracy    <       0.00000001 Ry

     iteration #  4     ecut=    80.00 Ry     beta= 0.70
     Davidson diagonalization with overlap
     ethr =  1.75E-10,  avg # of iterations =  2.0

     total cpu time spent up to now is       14.5 secs

     total energy              =     -24.11954420 Ry
     estimated scf accuracy    <          2.1E-10 Ry

     iteration #  5     ecut=    80.00 Ry     beta= 0.70
     Davidson diagonalization with overlap
     ethr =  2.58E-12,  avg # of iterations =  1.6

     total cpu time spent up to now is       14.5 secs

     total energy              =     -24.11954420 Ry
       estimated scf accuracy    <          1.5E-10 Ry

     iteration #  6     ecut=    80.00 Ry     beta= 0.70
     Davidson diagonalization with overlap
     ethr =  1.92E-12,  avg # of iterations =  1.0

     total cpu time spent up to now is       14.6 secs

     End of self-consistent calculation

          k = 0.0000 0.0000 0.0000 (   941 PWs)   bands (ev):

    -8.0952  13.5791  13.5791  13.5791  19.1949  19.1949  19.1949  27.6207

          k =-0.2519 0.2519-0.2519 (   923 PWs)   bands (ev):

    -6.3529   6.9100  11.7866  11.7866  21.4314  21.4314  22.0060  28.5071

          k = 0.5039-0.5039 0.5039 (   912 PWs)   bands (ev):
        -2.1130  -0.0823  10.7093  10.7093  22.0937  22.0937  22.9293  29.1728

          k = 0.0000 0.5039 0.0000 (   902 PWs)   bands (ev):

    -5.7758   9.1340   9.3422   9.3422  18.0707  23.9474  25.2916  25.2916

          k = 0.7558-0.2519 0.7558 (   920 PWs)   bands (ev):

    -1.9492   2.6789   6.7324   8.5716  19.7034  25.1043  26.5178  27.1966

          k = 0.5039 0.0000 0.5039 (   919 PWs)   bands (ev):

    -3.5458   4.8450   5.7904  10.4886  21.6012  23.6829  26.1249  27.7933

          k = 0.0000-1.0077 0.0000 (   934 PWs)   bands (ev):

     0.7681   0.7681   7.1122   7.1122  18.3712  18.3712  30.5408  30.5408

          k =-0.5039-1.0077-0.0000 (   932 PWs)   bands (ev):

     1.6425   1.6425   4.9846   4.9846  24.1656  24.1656  26.2228  26.2228

     the Fermi energy is    16.3925 ev

!    total energy              =     -24.11954420 Ry
     estimated scf accuracy    <          7.4E-12 Ry
     smearing contrib. (-TS)   =      -0.00000000 Ry
     internal energy E=F+TS    =     -24.11954420 Ry

     The total energy is F=E-TS. E is the sum of the following terms:
     one-electron contribution =       8.45777903 Ry
     hartree contribution      =       1.90571302 Ry
     xc contribution           =      -8.71154224 Ry
     ewald contribution        =     -25.77149400 Ry

     convergence has been achieved in   6 iterations
       Forces acting on atoms (cartesian axes, Ry/au):

     atom    1 type  1   force =    -0.00000000   -0.00000000   -0.00000000
     atom    2 type  1   force =     0.00000000    0.00000000    0.00000000

     Total force =     0.000000     Total SCF correction =     0.000000


     Computing stress (Cartesian axis) and pressure

          total   stress  (Ry/bohr**3)                   (kbar)     P=        0.05
   0.00000034  -0.00000000  -0.00000000            0.05       -0.00       -0.00
  -0.00000000   0.00000034   0.00000000           -0.00        0.05        0.00
  -0.00000000   0.00000000   0.00000034           -0.00        0.00        0.05

     Energy error            =      1.6E-07 Ry
     Gradient error          =      1.7E-31 Ry/Bohr
     Cell gradient error     =      5.1E-02 kbar

     bfgs converged in   4 scf cycles and   2 bfgs steps
     (criteria: energy <  1.0E-04 Ry, force <  1.0E-04Ry/Bohr, cell <  5.0E-01kbar)

     End of BFGS Geometry Optimization

     Final enthalpy           =     -24.1195441981 Ry

     File ./diamond.bfgs deleted, as requested
Begin final coordinates
     new unit-cell volume =     74.81062 a.u.^3 (    11.08579 Ang^3 )
     density =      3.59816 g/cm^3

CELL_PARAMETERS (alat=  6.74030000)
  -0.496171545  -0.000000000   0.496171545
   0.000000000   0.496171545   0.496171545
  -0.496171545   0.496171545  -0.000000000
       ATOMIC_POSITIONS (crystal)
C            -0.0000000000       -0.0000000000        0.0000000000
C             0.2500000000        0.2500000000        0.2500000000
End final coordinates



     Writing output data file ./diamond.save/

     Final scf calculation at the relaxed structure.
     The G-vectors are recalculated for the final unit cell
     Results may differ from those at the preceding step.

     Parallelization info
     --------------------
     sticks:   dense  smooth     PW     G-vecs:    dense   smooth      PW
     Min          31      31      9                  451      451      76
     Max          32      32     10                  454      454      79
     Sum         499     499    151                 7239     7239    1243

     Using Slab Decomposition



     bravais-lattice index     =            2
     lattice parameter (alat)  =       6.7403  a.u.
     unit-cell volume          =      74.8106 (a.u.)^3
     number of atoms/cell      =            2
     number of atomic types    =            1
     number of electrons       =         8.00
     number of Kohn-Sham states=            8
     kinetic-energy cutoff     =      80.0000  Ry
     charge density cutoff     =     320.0000  Ry
     scf convergence threshold =      1.0E-11
     mixing beta               =       0.7000
     number of iterations used =            8  plain     mixing
     press convergence thresh. =      5.0E-01
     Exchange-correlation= SLA  PW   NOGX NOGC
                           (   1   4   0   0   0   0   0)
        celldm(1)=   6.740300  celldm(2)=   0.000000  celldm(3)=   0.000000
     celldm(4)=   0.000000  celldm(5)=   0.000000  celldm(6)=   0.000000

     crystal axes: (cart. coord. in units of alat)
               a(1) = (  -0.496172  -0.000000   0.496172 )
               a(2) = (   0.000000   0.496172   0.496172 )
               a(3) = (  -0.496172   0.496172  -0.000000 )

     reciprocal axes: (cart. coord. in units 2 pi/alat)
               b(1) = ( -1.007716 -1.007716  1.007716 )
               b(2) = (  1.007716  1.007716  1.007716 )
               b(3) = ( -1.007716  1.007716 -1.007716 )


     PseudoPot. # 1 for C  read from file:
     ../../pseudo/C.upf
     MD5 check sum: c9bd9c91d9c48f3c1b9c51e450525728
     Pseudo is Norm-conserving + core correction, Zval =  4.0
     Generated using ONCVPSP code by D. R. Hamann
     Using radial grid of 1234 points,  4 beta functions with:
                l(1) =   0
                l(2) =   0
                l(3) =   1
                l(4) =   1

     atomic species   valence    mass     pseudopotential
        C              4.00    12.01070     C ( 1.00)

     48 Sym. Ops., with inversion, found (24 have fractional translation)
       Cartesian axes

     site n.     atom                  positions (alat units)
         1           C   tau(   1) = (   0.0000000   0.0000000  -0.0000000  )
         2           C   tau(   2) = (  -0.2480858   0.2480858   0.2480858  )

     number of k points=     8  Gaussian smearing, width (Ry)=  0.0100
                       cart. coord. in units 2pi/alat
        k(    1) = (   0.0000000   0.0000000   0.0000000), wk =   0.0312500
        k(    2) = (  -0.2519290   0.2519290  -0.2519290), wk =   0.2500000
        k(    3) = (   0.5038580  -0.5038580   0.5038580), wk =   0.1250000
        k(    4) = (   0.0000000   0.5038580   0.0000000), wk =   0.1875000
        k(    5) = (   0.7557870  -0.2519290   0.7557870), wk =   0.7500000
        k(    6) = (   0.5038580   0.0000000   0.5038580), wk =   0.3750000
        k(    7) = (   0.0000000  -1.0077160   0.0000000), wk =   0.0937500
        k(    8) = (  -0.5038580  -1.0077160  -0.0000000), wk =   0.1875000

     Dense  grid:     7239 G-vectors     FFT dimensions: (  32,  32,  32)

     Estimated max dynamical RAM per process >       1.27 MB

     Estimated total dynamical RAM >      20.30 MB

     Initial potential from superposition of free atoms

     starting charge    7.99992, renormalised to    8.00000
     Starting wfcs are    8 randomized atomic wfcs

     total cpu time spent up to now is       14.6 secs

     Self-consistent Calculation

     iteration #  1     ecut=    80.00 Ry     beta= 0.70
     Davidson diagonalization with overlap
     ethr =  1.00E-06,  avg # of iterations =  9.9

     total cpu time spent up to now is       14.7 secs
       total energy              =     -24.10706825 Ry
     estimated scf accuracy    <       0.13511118 Ry

     iteration #  2     ecut=    80.00 Ry     beta= 0.70
     Davidson diagonalization with overlap
     ethr =  1.69E-03,  avg # of iterations =  1.2

     total cpu time spent up to now is       14.7 secs

     total energy              =     -24.11887470 Ry
     estimated scf accuracy    <       0.00183357 Ry

     iteration #  3     ecut=    80.00 Ry     beta= 0.70
     Davidson diagonalization with overlap
     ethr =  2.29E-05,  avg # of iterations =  3.0

     total cpu time spent up to now is       14.7 secs

     total energy              =     -24.11950603 Ry
     estimated scf accuracy    <       0.00010085 Ry

     iteration #  4     ecut=    80.00 Ry     beta= 0.70
     Davidson diagonalization with overlap
     ethr =  1.26E-06,  avg # of iterations =  1.8

     total cpu time spent up to now is       14.7 secs

     total energy              =     -24.11951028 Ry
     estimated scf accuracy    <       0.00000414 Ry

     iteration #  5     ecut=    80.00 Ry     beta= 0.70
     Davidson diagonalization with overlap
     ethr =  5.17E-08,  avg # of iterations =  2.0

     total cpu time spent up to now is       14.8 secs

     total energy              =     -24.11951086 Ry
     estimated scf accuracy    <          8.0E-09 Ry

     iteration #  6     ecut=    80.00 Ry     beta= 0.70
       Davidson diagonalization with overlap
     ethr =  1.00E-10,  avg # of iterations =  3.2

     total cpu time spent up to now is       14.8 secs

     total energy              =     -24.11951087 Ry
     estimated scf accuracy    <          4.8E-10 Ry

     iteration #  7     ecut=    80.00 Ry     beta= 0.70
     Davidson diagonalization with overlap
     ethr =  6.02E-12,  avg # of iterations =  1.2

     total cpu time spent up to now is       14.8 secs

     total energy              =     -24.11951087 Ry
     estimated scf accuracy    <          1.6E-11 Ry

     iteration #  8     ecut=    80.00 Ry     beta= 0.70
     Davidson diagonalization with overlap
     ethr =  2.04E-13,  avg # of iterations =  2.0

     total cpu time spent up to now is       14.8 secs

     End of self-consistent calculation

          k = 0.0000 0.0000 0.0000 (   893 PWs)   bands (ev):

    -8.0952  13.5794  13.5794  13.5794  19.1954  19.1954  19.1954  27.6207
        k =-0.2519 0.2519-0.2519 (   902 PWs)   bands (ev):

    -6.3529   6.9101  11.7866  11.7866  21.4314  21.4314  22.0064  28.5077

          k = 0.5039-0.5039 0.5039 (   886 PWs)   bands (ev):

    -2.1130  -0.0823  10.7095  10.7095  22.0937  22.0937  22.9292  29.1737

          k = 0.0000 0.5039 0.0000 (   902 PWs)   bands (ev):

    -5.7758   9.1340   9.3422   9.3422  18.0707  23.9474  25.2915  25.2915

          k = 0.7558-0.2519 0.7558 (   898 PWs)   bands (ev):

    -1.9492   2.6789   6.7324   8.5716  19.7035  25.1045  26.5182  27.1967

          k = 0.5039 0.0000 0.5039 (   907 PWs)   bands (ev):

    -3.5459   4.8450   5.7904  10.4886  21.6012  23.6830  26.1250  27.7934

          k = 0.0000-1.0077 0.0000 (   934 PWs)   bands (ev):

     0.7680   0.7680   7.1121   7.1121  18.3712  18.3712  30.5407  30.5407

          k =-0.5039-1.0077-0.0000 (   892 PWs)   bands (ev):

     1.6425   1.6425   4.9848   4.9848  24.1659  24.1659  26.2232  26.2232

     the Fermi energy is    16.3924 ev

!    total energy              =     -24.11951087 Ry
     estimated scf accuracy    <          4.4E-12 Ry
     smearing contrib. (-TS)   =      -0.00000000 Ry
     internal energy E=F+TS    =     -24.11951087 Ry
       The total energy is F=E-TS. E is the sum of the following terms:
     one-electron contribution =       8.45781344 Ry
     hartree contribution      =       1.90569357 Ry
     xc contribution           =      -8.71152389 Ry
     ewald contribution        =     -25.77149400 Ry

     convergence has been achieved in   8 iterations

     Forces acting on atoms (cartesian axes, Ry/au):

     atom    1 type  1   force =    -0.00000000   -0.00000000   -0.00000000
     atom    2 type  1   force =     0.00000000    0.00000000    0.00000000

     Total force =     0.000000     Total SCF correction =     0.000000


     Computing stress (Cartesian axis) and pressure

          total   stress  (Ry/bohr**3)                   (kbar)     P=       -0.69
  -0.00000472  -0.00000000  -0.00000000           -0.69       -0.00       -0.00
  -0.00000000  -0.00000472   0.00000000           -0.00       -0.69        0.00
  -0.00000000   0.00000000  -0.00000472           -0.00        0.00       -0.69


     Writing output data file ./diamond.save/

     init_run     :      0.06s CPU      0.25s WALL (       2 calls)
     electrons    :      0.71s CPU      6.91s WALL (       5 calls)
     update_pot   :      0.04s CPU      0.04s WALL (       3 calls)
     forces       :      0.05s CPU      0.05s WALL (       5 calls)
     stress       :      0.08s CPU      0.08s WALL (       5 calls)

     Called by init_run:
     wfcinit      :      0.01s CPU      0.03s WALL (       2 calls)
     potinit      :      0.01s CPU      0.01s WALL (       2 calls)
     hinit0       :      0.03s CPU      0.21s WALL (       2 calls)

     Called by electrons:
     c_bands      :      0.59s CPU      0.65s WALL (      38 calls)
     sum_band     :      0.10s CPU      0.11s WALL (      38 calls)
        v_of_rho     :      0.01s CPU      0.01s WALL (      42 calls)
     mix_rho      :      0.01s CPU      0.01s WALL (      38 calls)

     Called by c_bands:
     init_us_2    :      0.01s CPU      0.01s WALL (     704 calls)
     cegterg      :      0.57s CPU      0.62s WALL (     304 calls)

     Called by *egterg:
     cdiaghg      :      0.08s CPU      0.10s WALL (     949 calls)
     h_psi        :      0.44s CPU      0.49s WALL (     997 calls)
     g_psi        :      0.00s CPU      0.00s WALL (     677 calls)

     Called by h_psi:
     h_psi:calbec :      0.02s CPU      0.03s WALL (     997 calls)
     vloc_psi     :      0.40s CPU      0.45s WALL (     997 calls)
     add_vuspsi   :      0.01s CPU      0.01s WALL (     997 calls)

     General routines
     calbec       :      0.02s CPU      0.03s WALL (    1197 calls)
     fft          :      0.01s CPU      0.19s WALL (     165 calls)
     ffts         :      0.00s CPU      0.00s WALL (      38 calls)
     fftw         :      0.43s CPU      0.47s WALL (   15362 calls)

     Parallel routines

     PWSCF        :      1.05s CPU   1m 8.94s WALL


   This run was terminated on:  11:36:56  12Mar2026

=------------------------------------------------------------------------------=
   JOB DONE.
=------------------------------------------------------------------------------=
