Program PWSCF v.6.8 starts on 16Mar2026 at 23:10:59

     This program is part of the open-source Quantum ESPRESSO suite
     for quantum simulation of materials; please cite
         "P. Giannozzi et al., J. Phys.:Condens. Matter 21 395502 (2009);
         "P. Giannozzi et al., J. Phys.:Condens. Matter 29 465901 (2017);
         "P. Giannozzi et al., J. Chem. Phys. 152 154105 (2020);
          URL http://www.quantum-espresso.org",
     in publications or presentations arising from this work. More details at
     http://www.quantum-espresso.org/quote

     Parallel version (MPI & OpenMP), running on       4 processor cores
     Number of MPI processes:                 4
     Threads/MPI process:                     1

     MPI processes distributed on     1 nodes
     R & G space division:  proc/nbgrp/npool/nimage =       4
     162079 MiB available memory on the printing compute node when the environment starts

     Waiting for input...
     Reading input from standard input
Warning: card &CELL ignored
Warning: card / ignored

     Current dimensions of program PWSCF are:
     Max number of different atomic species (ntypx) = 10
     Max number of k-points (npk) =  40000
     Max angular momentum in pseudopotentials (lmaxx) =  4

     Subspace diagonalization in iterative solution of the eigenvalue problem:
     a serial algorithm will be used


     Parallelization info
     --------------------
     sticks:   dense  smooth     PW     G-vecs:    dense   smooth      PW
     Min         186     186     58                 3383     3383     569
     Max         187     187     59                 3388     3388     570
     Sum         745     745    235                13539    13539    2277

     Using Slab Decomposition
 bravais-lattice index     =            2
     lattice parameter (alat)  =       8.2300  a.u.
     unit-cell volume          =     139.3604 (a.u.)^3
     number of atoms/cell      =            2
     number of atomic types    =            2
     number of electrons       =         8.00
     number of Kohn-Sham states=            8
     kinetic-energy cutoff     =      80.0000  Ry
     charge density cutoff     =     320.0000  Ry
     scf convergence threshold =      1.0E-08
     mixing beta               =       0.7000
     number of iterations used =            8  plain     mixing
     Exchange-correlation= PBE
                           (   1   4   3   4   0   0   0)

     celldm(1)=   8.230000  celldm(2)=   0.000000  celldm(3)=   0.000000
     celldm(4)=   0.000000  celldm(5)=   0.000000  celldm(6)=   0.000000

     crystal axes: (cart. coord. in units of alat)
               a(1) = (  -0.500000   0.000000   0.500000 )
               a(2) = (   0.000000   0.500000   0.500000 )
               a(3) = (  -0.500000   0.500000   0.000000 )

     reciprocal axes: (cart. coord. in units 2 pi/alat)
               b(1) = ( -1.000000 -1.000000  1.000000 )
               b(2) = (  1.000000  1.000000  1.000000 )
               b(3) = ( -1.000000  1.000000 -1.000000 )


     PseudoPot. # 1 for Si read from file:
     ../pseudo/Si.upf
     MD5 check sum: 02fab3f35e82123ef5bf1cb05d5b1a5e
     Pseudo is Norm-conserving + core correction, Zval =  4.0
     Generated using ONCVPSP code by D. R. Hamann
     Using radial grid of 1510 points,  6 beta functions with:

  l(1) =   0
                l(2) =   0
                l(3) =   1
                l(4) =   1
                l(5) =   2
                l(6) =   2

     PseudoPot. # 2 for C  read from file:
     ../pseudo/C.upf
     MD5 check sum: 34a24e64c0a39f27c6c36b90a16ac686
     Pseudo is Norm-conserving + core correction, Zval =  4.0
     Generated using ONCVPSP code by D. R. Hamann
     Using radial grid of 1248 points,  4 beta functions with:
                l(1) =   0
                l(2) =   0
                l(3) =   1
                l(4) =   1

     atomic species   valence    mass     pseudopotential
        Si             4.00    28.08500     Si( 1.00)
        C              4.00    12.01070     C ( 1.00)

     24 Sym. Ops. (no inversion) found



   Cartesian axes

     site n.     atom                  positions (alat units)
         1           Si  tau(   1) = (   0.0000000   0.0000000   0.0000000  )
         2           C   tau(   2) = (  -0.2500000   0.2500000   0.2500000  )
       number of k points=    16  Gaussian smearing, width (Ry)=  0.0100
                       cart. coord. in units 2pi/alat
        k(    1) = (   0.0000000   0.0000000   0.0000000), wk =   0.0092593
        k(    2) = (  -0.1666667   0.1666667  -0.1666667), wk =   0.0740741
        k(    3) = (  -0.3333333   0.3333333  -0.3333333), wk =   0.0740741
        k(    4) = (   0.5000000  -0.5000000   0.5000000), wk =   0.0370370
        k(    5) = (   0.0000000   0.3333333   0.0000000), wk =   0.0555556
        k(    6) = (  -0.1666667   0.5000000  -0.1666667), wk =   0.2222222
        k(    7) = (   0.6666667  -0.3333333   0.6666667), wk =   0.2222222
        k(    8) = (   0.5000000  -0.1666667   0.5000000), wk =   0.2222222
        k(    9) = (   0.3333333   0.0000000   0.3333333), wk =   0.1111111
        k(   10) = (   0.0000000   0.6666667   0.0000000), wk =   0.0555556
        k(   11) = (   0.8333333  -0.1666667   0.8333333), wk =   0.2222222
        k(   12) = (   0.6666667  -0.0000000   0.6666667), wk =   0.1111111
        k(   13) = (   0.0000000  -1.0000000   0.0000000), wk =   0.0277778
        k(   14) = (   0.6666667  -0.3333333   1.0000000), wk =   0.2222222
        k(   15) = (   0.5000000  -0.1666667   0.8333333), wk =   0.2222222
        k(   16) = (  -0.3333333  -1.0000000   0.0000000), wk =   0.1111111

     Dense  grid:    13539 G-vectors     FFT dimensions: (  36,  36,  36)

     Estimated max dynamical RAM per process >       6.44 MB

     Estimated total dynamical RAM >      25.77 MB

     Initial potential from superposition of free atoms

     starting charge    7.99934, renormalised to    8.00000
     Starting wfcs are    8 randomized atomic wfcs

     total cpu time spent up to now is        3.0 secs

     Self-consistent Calculation

     iteration #  1     ecut=    80.00 Ry     beta= 0.70
     Davidson diagonalization with overlap
     ethr =  1.00E-02,  avg # of iterations =  4.4
       total cpu time spent up to now is        3.0 secs

     Self-consistent Calculation

     iteration #  1     ecut=    80.00 Ry     beta= 0.70
     Davidson diagonalization with overlap
     ethr =  1.00E-02,  avg # of iterations =  4.4

     total cpu time spent up to now is        3.1 secs

     total energy              =     -20.37837795 Ry
     estimated scf accuracy    <       0.44321483 Ry

     iteration #  2     ecut=    80.00 Ry     beta= 0.70
     Davidson diagonalization with overlap
     ethr =  5.54E-03,  avg # of iterations =  2.0

     total cpu time spent up to now is        3.1 secs

     total energy              =     -20.50968691 Ry
     estimated scf accuracy    <       0.17030689 Ry

     iteration #  3     ecut=    80.00 Ry     beta= 0.70
     Davidson diagonalization with overlap
     ethr =  2.13E-03,  avg # of iterations =  1.1

     total cpu time spent up to now is        3.2 secs

     total energy              =     -20.53779292 Ry
     estimated scf accuracy    <       0.00208536 Ry

     iteration #  4     ecut=    80.00 Ry     beta= 0.70
     Davidson diagonalization with overlap
     ethr =  2.61E-05,  avg # of iterations =  3.8

     total cpu time spent up to now is        3.3 secs

     total energy              =     -20.53904784 Ry
     estimated scf accuracy    <       0.00103676 Ry

     iteration #  5     ecut=    80.00 Ry     beta= 0.70
       Davidson diagonalization with overlap
     ethr =  1.30E-05,  avg # of iterations =  1.2

     total cpu time spent up to now is        3.4 secs

     total energy              =     -20.53918980 Ry
     estimated scf accuracy    <       0.00001338 Ry

     iteration #  6     ecut=    80.00 Ry     beta= 0.70
     Davidson diagonalization with overlap
     ethr =  1.67E-07,  avg # of iterations =  3.8

     total cpu time spent up to now is        3.5 secs

     total energy              =     -20.53920209 Ry
     estimated scf accuracy    <       0.00001031 Ry

     iteration #  7     ecut=    80.00 Ry     beta= 0.70
     Davidson diagonalization with overlap
     ethr =  1.29E-07,  avg # of iterations =  1.4

     total cpu time spent up to now is        3.5 secs

     total energy              =     -20.53920325 Ry
     estimated scf accuracy    <       0.00000031 Ry

     iteration #  8     ecut=    80.00 Ry     beta= 0.70
     Davidson diagonalization with overlap
     ethr =  3.84E-09,  avg # of iterations =  2.6

     total cpu time spent up to now is        3.6 secs

     total energy              =     -20.53920340 Ry
     estimated scf accuracy    <       0.00000001 Ry

     iteration #  9     ecut=    80.00 Ry     beta= 0.70
     Davidson diagonalization with overlap
     ethr =  1.71E-10,  avg # of iterations =  2.1

     total cpu time spent up to now is        3.7 secs

     End of self-consistent calculation

          k = 0.0000 0.0000 0.0000 (  1687 PWs)   bands (ev):

    -5.9006   9.5268   9.5268   9.5268  15.7732  16.8468  16.8468  16.8468
                                                                            k =-0.1667 0.1667-0.1667 (  1687 PWs)   bands (ev):

    -5.3606   7.1510   9.1959   9.1959  15.8827  17.3635  17.3635  17.8925

          k =-0.3333 0.3333-0.3333 (  1670 PWs)   bands (ev):

    -3.8316   3.3381   8.6804   8.6804  15.2250  17.1809  17.1809  19.4547

          k = 0.5000-0.5000 0.5000 (  1694 PWs)   bands (ev):

    -2.3259   0.9698   8.4711   8.4711  14.9726  16.7645  16.7645  19.5892

          k = 0.0000 0.3333 0.0000 (  1700 PWs)   bands (ev):

    -5.1803   7.7301   8.4153   8.4153  15.0784  16.8815  18.5831  18.5831

          k =-0.1667 0.5000-0.1667 (  1680 PWs)   bands (ev):

    -3.9709   4.7411   7.7248   7.7791  14.4459  17.1232  18.5315  19.1965

          k = 0.6667-0.3333 0.6667 (  1689 PWs)   bands (ev):

    -2.1842   1.7384   6.7469   7.7698  14.3708  17.3685  18.3995  20.1814

          k = 0.5000-0.1667 0.5000 (  1690 PWs)   bands (ev):

    -2.7593   2.5831   6.3176   8.3721  15.2256  17.2822  17.9249  20.1714

          k = 0.3333 0.0000 0.3333 (  1684 PWs)   bands (ev):

    -4.4842   5.6127   7.0859   9.1488  16.5671  17.1277  17.6038  18.4842

          k = 0.0000 0.6667 0.0000 (  1680 PWs)   bands (ev):

    -3.1218   4.4631   6.9104   6.9104  12.1656  14.7541  21.6817  21.6818

          k = 0.8333-0.1667 0.8333 (  1683 PWs)   bands (ev):

    -1.5634   2.6665   5.1714   6.7406  12.2574  15.7574  21.6390  21.7474

          k = 0.6667-0.0000 0.6667 (  1700 PWs)   bands (ev):

    -1.2587   2.4752   3.8780   7.3472  13.3566  18.7177  20.3118  21.0916
        k = 0.0000-1.0000 0.0000 (  1692 PWs)   bands (ev):

    -0.8724   1.7152   6.3298   6.3298  10.8818  13.8628  23.5475  23.5476

          k = 0.6667-0.3333 1.0000 (  1678 PWs)   bands (ev):

    -2.5459   3.5627   5.4153   7.1009  14.4278  17.2962  18.1218  21.2110

          k = 0.5000-0.1667 0.8333 (  1688 PWs)   bands (ev):

    -1.2415   2.1375   4.8022   6.3972  14.6541  17.4327  19.8535  20.8399

          k =-0.3333-1.0000 0.0000 (  1678 PWs)   bands (ev):

    -0.7025   2.2262   5.0068   5.1309  13.5231  16.6369  20.3643  21.7579

     the Fermi energy is    10.2058 ev

!    total energy              =     -20.53920340 Ry
     estimated scf accuracy    <          7.7E-09 Ry
     smearing contrib. (-TS)   =      -0.00000000 Ry
     internal energy E=F+TS    =     -20.53920340 Ry

     The total energy is F=E-TS. E is the sum of the following terms:
     one-electron contribution =       5.63214195 Ry
     hartree contribution      =       2.33573606 Ry
     xc contribution           =      -7.56205864 Ry
     ewald contribution        =     -20.94502277 Ry

     convergence has been achieved in   9 iterations

     Writing output data file ./SiC_scf4.save/

     init_run     :      0.06s CPU      0.08s WALL (       1 calls)
     electrons    :      0.71s CPU      2.52s WALL (       1 calls)

     Called by init_run:
     wfcinit      :      0.02s CPU      0.03s WALL (       1 calls)
     potinit      :      0.01s CPU      0.01s WALL (       1 calls)
     hinit0       :      0.02s CPU      0.03s WALL (       1 calls)
       Called by electrons:
     c_bands      :      0.57s CPU      0.59s WALL (       9 calls)
     sum_band     :      0.10s CPU      0.11s WALL (       9 calls)
     v_of_rho     :      0.04s CPU      0.04s WALL (      10 calls)
     mix_rho      :      0.01s CPU      0.01s WALL (       9 calls)

     Called by c_bands:
     init_us_2    :      0.04s CPU      0.04s WALL (     304 calls)
     cegterg      :      0.47s CPU      0.48s WALL (     144 calls)

     Called by *egterg:
     cdiaghg      :      0.04s CPU      0.05s WALL (     504 calls)
     h_psi        :      0.39s CPU      0.41s WALL (     520 calls)
     g_psi        :      0.00s CPU      0.00s WALL (     360 calls)

     Called by h_psi:
     h_psi:calbec :      0.02s CPU      0.02s WALL (     520 calls)
     vloc_psi     :      0.36s CPU      0.38s WALL (     520 calls)
     add_vuspsi   :      0.01s CPU      0.01s WALL (     520 calls)

     General routines
     calbec       :      0.02s CPU      0.02s WALL (     520 calls)
     fft          :      0.01s CPU      0.02s WALL (     100 calls)
     ffts         :      0.00s CPU      0.00s WALL (       9 calls)
     fftw         :      0.35s CPU      0.37s WALL (    7382 calls)

     Parallel routines

     PWSCF        :      0.85s CPU     35.23s WALL


   This run was terminated on:  23:11:34  16Mar2026

=------------------------------------------------------------------------------=
   JOB DONE.
=------------------------------------------------------------------------------=






