Program PWSCF v.6.8 starts on 16Mar2026 at 23:23:45

     This program is part of the open-source Quantum ESPRESSO suite
     for quantum simulation of materials; please cite
         "P. Giannozzi et al., J. Phys.:Condens. Matter 21 395502 (2009);
         "P. Giannozzi et al., J. Phys.:Condens. Matter 29 465901 (2017);
         "P. Giannozzi et al., J. Chem. Phys. 152 154105 (2020);
          URL http://www.quantum-espresso.org",
     in publications or presentations arising from this work. More details at
     http://www.quantum-espresso.org/quote

     Parallel version (MPI & OpenMP), running on       4 processor cores
     Number of MPI processes:                 4
     Threads/MPI process:                     1

     MPI processes distributed on     1 nodes
     R & G space division:  proc/nbgrp/npool/nimage =       4
     156632 MiB available memory on the printing compute node when the environment starts

     Waiting for input...
     Reading input from standard input
Warning: card &CELL ignored
Warning: card CELL_DOFREE='ALL' ignored
Warning: card / ignored
 Current dimensions of program PWSCF are:
     Max number of different atomic species (ntypx) = 10
     Max number of k-points (npk) =  40000
     Max angular momentum in pseudopotentials (lmaxx) =  4

     Subspace diagonalization in iterative solution of the eigenvalue problem:
     a serial algorithm will be used


     Parallelization info
     --------------------
     sticks:   dense  smooth     PW     G-vecs:    dense   smooth      PW
     Min         124     124     40                 1845     1845     340
     Max         125     125     41                 1849     1849     342
     Sum         499     499    163                 7391     7391    1363

     Using Slab Decomposition
bravais-lattice index     =            2
     lattice parameter (alat)  =       6.7403  a.u.
     unit-cell volume          =      76.5557 (a.u.)^3
     number of atoms/cell      =            2
     number of atomic types    =            1
     number of electrons       =         8.00
     number of Kohn-Sham states=            8
     kinetic-energy cutoff     =      80.0000  Ry
     charge density cutoff     =     320.0000  Ry
     scf convergence threshold =      1.0E-09
     mixing beta               =       0.7000
     number of iterations used =            8  plain     mixing
     Exchange-correlation= PBE
                           (   1   4   3   4   0   0   0)

     celldm(1)=   6.740300  celldm(2)=   0.000000  celldm(3)=   0.000000
     celldm(4)=   0.000000  celldm(5)=   0.000000  celldm(6)=   0.000000

     crystal axes: (cart. coord. in units of alat)
               a(1) = (  -0.500000   0.000000   0.500000 )
               a(2) = (   0.000000   0.500000   0.500000 )
               a(3) = (  -0.500000   0.500000   0.000000 )

     reciprocal axes: (cart. coord. in units 2 pi/alat)
               b(1) = ( -1.000000 -1.000000  1.000000 )
               b(2) = (  1.000000  1.000000  1.000000 )
               b(3) = ( -1.000000  1.000000 -1.000000 )
 PseudoPot. # 1 for C  read from file:
     ../pseudo/C.upf
     MD5 check sum: 34a24e64c0a39f27c6c36b90a16ac686
     Pseudo is Norm-conserving + core correction, Zval =  4.0
     Generated using ONCVPSP code by D. R. Hamann
     Using radial grid of 1248 points,  4 beta functions with:
                l(1) =   0
                l(2) =   0
                l(3) =   1
                l(4) =   1

     atomic species   valence    mass     pseudopotential
        C              4.00    12.01070     C ( 1.00)

     48 Sym. Ops., with inversion, found (24 have fractional translation)
Cartesian axes

     site n.     atom                  positions (alat units)
         1           C   tau(   1) = (   0.0000000   0.0000000   0.0000000  )
         2           C   tau(   2) = (  -0.2500000   0.2500000   0.2500000  )

     number of k points=    29  Gaussian smearing, width (Ry)=  0.0100
                       cart. coord. in units 2pi/alat
k(    1) = (   0.0000000   0.0000000   0.0000000), wk =   0.0039062
        k(    2) = (  -0.1250000   0.1250000  -0.1250000), wk =   0.0312500
        k(    3) = (  -0.2500000   0.2500000  -0.2500000), wk =   0.0312500
        k(    4) = (  -0.3750000   0.3750000  -0.3750000), wk =   0.0312500
        k(    5) = (   0.5000000  -0.5000000   0.5000000), wk =   0.0156250
        k(    6) = (   0.0000000   0.2500000   0.0000000), wk =   0.0234375
        k(    7) = (  -0.1250000   0.3750000  -0.1250000), wk =   0.0937500
        k(    8) = (  -0.2500000   0.5000000  -0.2500000), wk =   0.0937500
        k(    9) = (   0.6250000  -0.3750000   0.6250000), wk =   0.0937500
        k(   10) = (   0.5000000  -0.2500000   0.5000000), wk =   0.0937500
        k(   11) = (   0.3750000  -0.1250000   0.3750000), wk =   0.0937500
        k(   12) = (   0.2500000   0.0000000   0.2500000), wk =   0.0468750
        k(   13) = (   0.0000000   0.5000000   0.0000000), wk =   0.0234375
        k(   14) = (  -0.1250000   0.6250000  -0.1250000), wk =   0.0937500
        k(   15) = (   0.7500000  -0.2500000   0.7500000), wk =   0.0937500
        k(   16) = (   0.6250000  -0.1250000   0.6250000), wk =   0.0937500
        k(   17) = (   0.5000000   0.0000000   0.5000000), wk =   0.0468750
        k(   18) = (   0.0000000   0.7500000   0.0000000), wk =   0.0234375
        k(   19) = (   0.8750000  -0.1250000   0.8750000), wk =   0.0937500
        k(   20) = (   0.7500000   0.0000000   0.7500000), wk =   0.0468750
        k(   21) = (   0.0000000  -1.0000000   0.0000000), wk =   0.0117188
k(   22) = (  -0.2500000   0.5000000   0.0000000), wk =   0.0937500
        k(   23) = (   0.6250000  -0.3750000   0.8750000), wk =   0.1875000
        k(   24) = (   0.5000000  -0.2500000   0.7500000), wk =   0.0937500
        k(   25) = (   0.7500000  -0.2500000   1.0000000), wk =   0.0937500
        k(   26) = (   0.6250000  -0.1250000   0.8750000), wk =   0.1875000
        k(   27) = (   0.5000000   0.0000000   0.7500000), wk =   0.0937500
        k(   28) = (  -0.2500000  -1.0000000   0.0000000), wk =   0.0468750
        k(   29) = (  -0.5000000  -1.0000000   0.0000000), wk =   0.0234375

     Dense  grid:     7391 G-vectors     FFT dimensions: (  32,  32,  32)

     Estimated max dynamical RAM per process >       2.77 MB

     Estimated total dynamical RAM >      11.08 MB
Initial potential from superposition of free atoms

     starting charge    7.99991, renormalised to    8.00000
     Starting wfcs are    8 randomized atomic wfcs

     total cpu time spent up to now is        2.6 secs

     Self-consistent Calculation

     iteration #  1     ecut=    80.00 Ry     beta= 0.70
     Davidson diagonalization with overlap
     ethr =  1.00E-02,  avg # of iterations =  3.2

     total cpu time spent up to now is        2.7 secs

     total energy              =     -24.06897578 Ry
     estimated scf accuracy    <       0.11205371 Ry

     iteration #  2     ecut=    80.00 Ry     beta= 0.70
     Davidson diagonalization with overlap
ethr =  1.00E-02,  avg # of iterations =  3.2

     total cpu time spent up to now is        2.7 secs

     total energy              =     -24.06897578 Ry
     estimated scf accuracy    <       0.11205371 Ry

     iteration #  2     ecut=    80.00 Ry     beta= 0.70
     Davidson diagonalization with overlap
     ethr =  1.40E-03,  avg # of iterations =  1.3

     total cpu time spent up to now is        2.8 secs

     total energy              =     -24.07517192 Ry
     estimated scf accuracy    <       0.00290043 Ry

     iteration #  3     ecut=    80.00 Ry     beta= 0.70
     Davidson diagonalization with overlap
     ethr =  3.63E-05,  avg # of iterations =  3.6

     total cpu time spent up to now is        2.9 secs

     total energy              =     -24.07563495 Ry
     estimated scf accuracy    <       0.00008273 Ry

     iteration #  4     ecut=    80.00 Ry     beta= 0.70
Davidson diagonalization with overlap
     ethr =  1.03E-06,  avg # of iterations =  2.6

     total cpu time spent up to now is        3.0 secs

     total energy              =     -24.07564191 Ry
     estimated scf accuracy    <       0.00000552 Ry

     iteration #  5     ecut=    80.00 Ry     beta= 0.70
     Davidson diagonalization with overlap
     ethr =  6.90E-08,  avg # of iterations =  1.4

     total cpu time spent up to now is        3.1 secs

     total energy              =     -24.07564252 Ry
     estimated scf accuracy    <       0.00000001 Ry

     iteration #  6     ecut=    80.00 Ry     beta= 0.70
     Davidson diagonalization with overlap
     ethr =  1.61E-10,  avg # of iterations =  3.1

     total cpu time spent up to now is        3.1 secs
total energy              =     -24.07564255 Ry
     estimated scf accuracy    <          2.4E-09 Ry

     iteration #  7     ecut=    80.00 Ry     beta= 0.70
     Davidson diagonalization with overlap
     ethr =  2.99E-11,  avg # of iterations =  1.8

     total cpu time spent up to now is        3.2 secs

     End of self-consistent calculation

          k = 0.0000 0.0000 0.0000 (   941 PWs)   bands (ev):

    -8.1303  13.3580  13.3580  13.3580  18.9822  18.9822  18.9822  26.6863

          k =-0.1250 0.1250-0.1250 (   920 PWs)   bands (ev):

    -7.6984  10.9423  12.7042  12.7042  19.8411  19.8411  20.2694  27.0530

          k =-0.2500 0.2500-0.2500 (   923 PWs)   bands (ev):

    -6.4160   6.7609  11.6063  11.6063  21.1869  21.1869  21.5447  27.9926

          k =-0.3750 0.3750-0.3750 (   926 PWs)   bands (ev):
 -4.3503   2.6747  10.8200  10.8200  21.7944  21.7944  22.1004  28.8299

          k = 0.5000-0.5000 0.5000 (   912 PWs)   bands (ev):

    -2.3545  -0.0286  10.5460  10.5460  21.8744  21.8744  22.2523  29.0687

          k = 0.0000 0.2500 0.0000 (   929 PWs)   bands (ev):

    -7.5547  11.6303  11.6303  12.0318  18.5758  21.1980  21.1980  26.6842

          k =-0.1250 0.3750-0.1250 (   925 PWs)   bands (ev):

    -6.5560   8.2649  10.4765  11.3231  19.2365  22.7339  22.8176  26.2568

          k =-0.2500 0.5000-0.2500 (   916 PWs)   bands (ev):

    -4.7446   4.2344   9.8252  10.1535  20.4134  23.4715  23.4940  26.8777

          k = 0.6250-0.3750 0.6250 (   925 PWs)   bands (ev):

    -2.4115   0.7919   9.1988   9.8221  21.0313  23.2260  23.6817  28.5585
 k = 0.5000-0.2500 0.5000 (   925 PWs)   bands (ev):

    -3.1821   1.7972   8.7677  10.4385  21.6176  22.5739  23.5859  28.7570

          k = 0.3750-0.1250 0.3750 (   927 PWs)   bands (ev):

    -5.4343   5.5861   8.9862  11.5111  21.5197  22.0474  23.0099  27.5298

          k = 0.2500 0.0000 0.2500 (   915 PWs)   bands (ev):

    -6.9830   9.3699  10.1035  12.5967  20.1424  21.4565  21.5685  27.1552

          k = 0.0000 0.5000 0.0000 (   902 PWs)   bands (ev):

    -5.8469   8.8375   9.2269   9.2269  17.8474  23.6723  24.9773  24.9773

          k =-0.1250 0.6250-0.1250 (   920 PWs)   bands (ev):

    -4.3172   5.8316   8.1279   8.4937  18.5823  22.7638  26.2776  26.3024

          k = 0.7500-0.2500 0.7500 (   920 PWs)   bands (ev):

    -2.1096   2.5601   6.6092   8.4677  19.4971  24.8433  26.2059  26.7150

          k = 0.6250-0.1250 0.6250 (   931 PWs)   bands (ev):

    -1.4116   1.7587   5.6057   9.1421  20.2670  25.1700  26.6492  28.1737
 k = 0.0000 0.5000 0.0000 (   902 PWs)   bands (ev):

    -5.8469   8.8375   9.2269   9.2269  17.8474  23.6723  24.9773  24.9773

          k =-0.1250 0.6250-0.1250 (   920 PWs)   bands (ev):

    -4.3172   5.8316   8.1279   8.4937  18.5823  22.7638  26.2776  26.3024

          k = 0.7500-0.2500 0.7500 (   920 PWs)   bands (ev):

    -2.1096   2.5601   6.6092   8.4677  19.4971  24.8433  26.2059  26.7150

          k = 0.6250-0.1250 0.6250 (   931 PWs)   bands (ev):

    -1.4116   1.7587   5.6057   9.1421  20.2670  25.1700  26.6492  28.1737

          k = 0.5000 0.0000 0.5000 (   919 PWs)   bands (ev):

    -3.6641   4.6478   5.7423  10.3360  21.3441  23.4023  25.7541  27.2867

          k = 0.0000 0.7500 0.0000 (   930 PWs)   bands (ev):

    -3.0777   4.7646   7.6035   7.6035  17.5473  20.1605  28.4987  28.4987

          k = 0.8750-0.1250 0.8750 (   935 PWs)   bands (ev):

    -1.1154   2.6766   6.0026   7.4200  18.3950  20.4286  29.0267  29.2855

          k = 0.7500 0.0000 0.7500 (   929 PWs)   bands (ev):

     0.3691   1.6137   4.0313   7.9790  19.0994  24.1555  27.7484  28.9939

          k = 0.0000-1.0000 0.0000 (   934 PWs)   bands (ev):

     0.5820   0.5820   7.0422   7.0422  18.1833  18.1833  30.1703  30.1703

          k =-0.2500 0.5000 0.0000 (   928 PWs)   bands (ev):

    -5.2909   6.8400   7.8492  10.4636  19.9744  23.4435  24.9681  25.1608

          k = 0.6250-0.3750 0.8750 (   926 PWs)   bands (ev):

    -3.2655   3.5015   7.0702   9.2675  21.3764  23.0464  25.7836  26.7449
 k = 0.5000-0.2500 0.7500 (   938 PWs)   bands (ev):

    -1.3442   0.9819   7.0352   8.6596  21.7156  22.8574  26.4365  28.2431

          k = 0.7500-0.2500 1.0000 (   932 PWs)   bands (ev):

    -2.5687   4.3356   6.3534   7.4068  19.7340  22.0233  26.3870  28.4975

          k = 0.6250-0.1250 0.8750 (   922 PWs)   bands (ev):

    -0.3752   2.1782   4.9362   6.9984  20.9477  24.3150  25.9263  28.3048

          k = 0.5000 0.0000 0.7500 (   928 PWs)   bands (ev):

    -1.1667   2.9404   4.4803   7.8739  21.7865  24.1724  26.4598  27.9099

          k =-0.2500-1.0000 0.0000 (   930 PWs)   bands (ev):

     0.9196   0.9196   6.0310   6.0310  20.2920  20.2920  28.9375  28.9375

          k =-0.5000-1.0000 0.0000 (   932 PWs)   bands (ev):

     1.3724   1.3724   5.0254   5.0254  24.0400  24.0400  25.7090  25.7090

     the Fermi energy is    16.1477 ev

!    total energy              =     -24.07564255 Ry
     estimated scf accuracy    <          2.3E-12 Ry
     smearing contrib. (-TS)   =      -0.00000000 Ry
     internal energy E=F+TS    =     -24.07564255 Ry

     The total energy is F=E-TS. E is the sum of the following terms:
     one-electron contribution =       8.24649469 Ry
     hartree contribution      =       1.93228738 Ry
     xc contribution           =      -8.68026065 Ry
     ewald contribution        =     -25.57416397 Ry

     convergence has been achieved in   7 iterations

     Writing output data file ./diamond.save/
init_run     :      0.05s CPU      0.14s WALL (       1 calls)
     electrons    :      0.54s CPU      1.74s WALL (       1 calls)

     Called by init_run:
     wfcinit      :      0.02s CPU      0.05s WALL (       1 calls)
     potinit      :      0.00s CPU      0.01s WALL (       1 calls)
     hinit0       :      0.01s CPU      0.08s WALL (       1 calls)

     Called by electrons:
     c_bands      :      0.44s CPU      0.47s WALL (       7 calls)
     sum_band     :      0.08s CPU      0.09s WALL (       7 calls)
     v_of_rho     :      0.02s CPU      0.02s WALL (       8 calls)
     mix_rho      :      0.00s CPU      0.00s WALL (       7 calls)

     Called by c_bands:
     init_us_2    :      0.02s CPU      0.02s WALL (     435 calls)
     cegterg      :      0.40s CPU      0.43s WALL (     203 calls)

     Called by *egterg:
     cdiaghg      :      0.06s CPU      0.07s WALL (     697 calls)
     h_psi        :      0.32s CPU      0.35s WALL (     726 calls)
     g_psi        :      0.00s CPU      0.00s WALL (     494 calls)

     Called by h_psi:
     h_psi:calbec :      0.01s CPU      0.02s WALL (     726 calls)
     vloc_psi     :      0.30s CPU      0.32s WALL (     726 calls)
     add_vuspsi   :      0.01s CPU      0.01s WALL (     726 calls)

     General routines
     calbec       :      0.01s CPU      0.02s WALL (     726 calls)
     fft          :      0.01s CPU      0.07s WALL (      80 calls)
     ffts         :      0.00s CPU      0.00s WALL (       7 calls)
     fftw         :      0.28s CPU      0.30s WALL (   10408 calls)

     Parallel routines

     PWSCF        :      0.66s CPU      8.31s WALL


   This run was terminated on:  23:23:53  16Mar2026

=------------------------------------------------------------------------------=
   JOB DONE.
=------------------------------------------------------------------------------=
                                                                                      
